
Gurobi 11.0.0 (win64) logging started Sat Jun 15 09:38:48 2024

Set parameter LogFile to value "./GurobiLog/stage_3_iter_0.log"
Set parameter Threads to value 1
Set parameter FeasibilityTol to value 1e-05
Gurobi Optimizer version 11.0.0 build v11.0.0rc2 (win64 - Windows 10.0 (18363.2))

CPU model: Intel(R) Core(TM) i7-8700 CPU @ 3.20GHz, instruction set [SSE2|AVX|AVX2]
Thread count: 6 physical cores, 12 logical processors, using up to 1 threads


Warning: excessive time spent in model updates.
Consider calling update less frequently.

Optimize a model with 1065 rows, 10910 columns and 18470 nonzeros
Model fingerprint: 0x976d2ebc
Coefficient statistics:
  Matrix range     [1e+00, 4e+01]
  Objective range  [2e+00, 2e+05]
  Bounds range     [5e+00, 2e+01]
  RHS range        [1e+00, 3e+04]
Presolve removed 803 rows and 9099 columns
Presolve time: 0.01s
Presolved: 262 rows, 1811 columns, 5477 nonzeros

Iteration    Objective       Primal Inf.    Dual Inf.      Time
       0    3.7404700e+03   1.732865e+02   0.000000e+00      0s
     312    1.7230395e+04   0.000000e+00   0.000000e+00      0s

Solved in 312 iterations and 0.02 seconds (0.01 work units)
Optimal objective  1.723039500e+04

Gurobi 11.0.0 (win64) logging started Sat Jun 15 09:39:34 2024

Set parameter LogFile to value "./GurobiLog/stage_3_iter_0.log"
Set parameter Threads to value 1
Set parameter FeasibilityTol to value 1e-05
Gurobi Optimizer version 11.0.0 build v11.0.0rc2 (win64 - Windows 10.0 (18363.2))

CPU model: Intel(R) Core(TM) i7-8700 CPU @ 3.20GHz, instruction set [SSE2|AVX|AVX2]
Thread count: 6 physical cores, 12 logical processors, using up to 1 threads


Warning: excessive time spent in model updates.
Consider calling update less frequently.

Optimize a model with 1065 rows, 10910 columns and 18470 nonzeros
Model fingerprint: 0xb5ed5503
Coefficient statistics:
  Matrix range     [1e+00, 4e+01]
  Objective range  [2e+00, 2e+05]
  Bounds range     [1e+00, 2e+01]
  RHS range        [1e+00, 3e+04]
Presolve removed 795 rows and 9079 columns
Presolve time: 0.01s
Presolved: 270 rows, 1831 columns, 5550 nonzeros

Iteration    Objective       Primal Inf.    Dual Inf.      Time
       0    3.8150800e+03   1.810990e+02   0.000000e+00      0s
     308    1.7994365e+04   0.000000e+00   0.000000e+00      0s

Solved in 308 iterations and 0.01 seconds (0.01 work units)
Optimal objective  1.799436500e+04

Gurobi 11.0.0 (win64) logging started Sat Jun 15 10:37:33 2024

Set parameter LogFile to value "./GurobiLog/stage_3_iter_0.log"
Set parameter Threads to value 1
Set parameter FeasibilityTol to value 1e-05
Gurobi Optimizer version 11.0.0 build v11.0.0rc2 (win64 - Windows 10.0 (18363.2))

CPU model: Intel(R) Core(TM) i7-8700 CPU @ 3.20GHz, instruction set [SSE2|AVX|AVX2]
Thread count: 6 physical cores, 12 logical processors, using up to 1 threads


Warning: excessive time spent in model updates.
Consider calling update less frequently.

Optimize a model with 1065 rows, 10910 columns and 18470 nonzeros
Model fingerprint: 0x17d36fa3
Coefficient statistics:
  Matrix range     [1e+00, 4e+01]
  Objective range  [2e+00, 2e+05]
  Bounds range     [5e+00, 2e+01]
  RHS range        [1e+00, 3e+04]
Presolve removed 800 rows and 9101 columns
Presolve time: 0.01s
Presolved: 265 rows, 1809 columns, 5509 nonzeros

Iteration    Objective       Primal Inf.    Dual Inf.      Time
       0    3.6154900e+03   1.744740e+02   0.000000e+00      0s
     316    1.7299270e+04   0.000000e+00   0.000000e+00      0s

Solved in 316 iterations and 0.01 seconds (0.01 work units)
Optimal objective  1.729927000e+04

Gurobi 11.0.0 (win64) logging started Sat Jun 15 10:37:54 2024

Set parameter LogFile to value "./GurobiLog/stage_3_iter_0.log"
Set parameter Threads to value 1
Set parameter FeasibilityTol to value 1e-05
Gurobi Optimizer version 11.0.0 build v11.0.0rc2 (win64 - Windows 10.0 (18363.2))

CPU model: Intel(R) Core(TM) i7-8700 CPU @ 3.20GHz, instruction set [SSE2|AVX|AVX2]
Thread count: 6 physical cores, 12 logical processors, using up to 1 threads


Warning: excessive time spent in model updates.
Consider calling update less frequently.

Optimize a model with 1065 rows, 10910 columns and 18470 nonzeros
Model fingerprint: 0x1c5cc680
Coefficient statistics:
  Matrix range     [1e+00, 4e+01]
  Objective range  [2e+00, 2e+05]
  Bounds range     [1e+00, 2e+01]
  RHS range        [1e+00, 3e+04]
Presolve removed 804 rows and 9110 columns
Presolve time: 0.01s
Presolved: 261 rows, 1800 columns, 5456 nonzeros

Iteration    Objective       Primal Inf.    Dual Inf.      Time
       0    3.7557300e+03   1.698555e+02   0.000000e+00      0s
     311    1.7432420e+04   0.000000e+00   0.000000e+00      0s

Solved in 311 iterations and 0.01 seconds (0.01 work units)
Optimal objective  1.743242000e+04

Gurobi 11.0.0 (win64) logging started Sat Jun 15 10:56:45 2024

Set parameter LogFile to value "./GurobiLog/stage_3_iter_0.log"
Set parameter Threads to value 1
Set parameter FeasibilityTol to value 1e-05
Gurobi Optimizer version 11.0.0 build v11.0.0rc2 (win64 - Windows 10.0 (18363.2))

CPU model: Intel(R) Core(TM) i7-8700 CPU @ 3.20GHz, instruction set [SSE2|AVX|AVX2]
Thread count: 6 physical cores, 12 logical processors, using up to 1 threads


Warning: excessive time spent in model updates.
Consider calling update less frequently.

Optimize a model with 1065 rows, 10910 columns and 18470 nonzeros
Model fingerprint: 0xabc117ad
Coefficient statistics:
  Matrix range     [1e+00, 4e+01]
  Objective range  [2e+00, 2e+05]
  Bounds range     [1e+00, 2e+01]
  RHS range        [1e+00, 3e+04]
Presolve removed 795 rows and 9075 columns
Presolve time: 0.01s
Presolved: 270 rows, 1835 columns, 5557 nonzeros

Iteration    Objective       Primal Inf.    Dual Inf.      Time
       0    3.7404700e+03   1.820333e+02   0.000000e+00      0s
     336    1.8406905e+04   0.000000e+00   0.000000e+00      0s

Solved in 336 iterations and 0.01 seconds (0.01 work units)
Optimal objective  1.840690500e+04

Gurobi 11.0.0 (win64) logging started Sun Jun 16 17:42:10 2024

Set parameter LogFile to value "./GurobiLog/stage_3_iter_0.log"
Set parameter Threads to value 1
Set parameter FeasibilityTol to value 1e-05
Gurobi Optimizer version 11.0.0 build v11.0.0rc2 (win64 - Windows 10.0 (18363.2))

CPU model: Intel(R) Core(TM) i7-8700 CPU @ 3.20GHz, instruction set [SSE2|AVX|AVX2]
Thread count: 6 physical cores, 12 logical processors, using up to 1 threads


Warning: excessive time spent in model updates.
Consider calling update less frequently.

Optimize a model with 875 rows, 12370 columns and 31490 nonzeros
Model fingerprint: 0xe4c6d9d9
Coefficient statistics:
  Matrix range     [1e+00, 6e+01]
  Objective range  [2e+00, 2e+05]
  Bounds range     [1e+00, 2e+03]
  RHS range        [1e+00, 2e+04]
Presolve removed 551 rows and 6754 columns
Presolve time: 0.01s
Presolved: 324 rows, 5616 columns, 17764 nonzeros

Iteration    Objective       Primal Inf.    Dual Inf.      Time
       0    1.9039583e+06   4.844140e+02   0.000000e+00      0s
     647    2.3446944e+06   0.000000e+00   0.000000e+00      0s

Solved in 647 iterations and 0.03 seconds (0.02 work units)
Optimal objective  2.344694427e+06
